
Gurobi 11.0.3 (linux64) logging started Mon Dec 15 15:56:34 2025

Set parameter LogFile to value "./log/train/IS_900_6/IS_1.lp.log"
Set parameter TimeLimit to value 3600
Gurobi Optimizer version 11.0.3 build v11.0.3rc0 (linux64 - "Ubuntu 22.04.5 LTS")

CPU model: AMD Ryzen 9 9900X 12-Core Processor, instruction set [SSE2|AVX|AVX2|AVX512]
Thread count: 12 physical cores, 24 logical processors, using up to 24 threads

Optimize a model with 5502 rows, 900 columns and 10826 nonzeros
Model fingerprint: 0x6a0d52c7
Variable types: 0 continuous, 900 integer (900 binary)
Coefficient statistics:
  Matrix range     [1e+00, 1e+00]
  Objective range  [1e+00, 1e+00]
  Bounds range     [1e+00, 1e+00]
  RHS range        [1e+00, 1e+00]
Found heuristic solution: objective 202.0000000
Presolve removed 1338 rows and 0 columns
Presolve time: 0.01s
Presolved: 4164 rows, 900 columns, 9497 nonzeros
Variable types: 0 continuous, 900 integer (900 binary)

Root relaxation: objective 4.022500e+02, 1738 iterations, 0.05 seconds (0.11 work units)

    Nodes    |    Current Node    |     Objective Bounds      |     Work
 Expl Unexpl |  Obj  Depth IntInf | Incumbent    BestBd   Gap | It/Node Time

     0     0  402.25000    0  775  202.00000  402.25000  99.1%     -    0s
H    0     0                     321.0000000  402.25000  25.3%     -    0s
     0     0  394.23169    0  874  321.00000  394.23169  22.8%     -    0s
H    0     0                     337.0000000  394.23169  17.0%     -    0s
     0     0  394.21806    0  872  337.00000  394.21806  17.0%     -    0s
     0     0  394.21650    0  873  337.00000  394.21650  17.0%     -    0s
     0     0  394.21650    0  874  337.00000  394.21650  17.0%     -    0s
H    0     0                     339.0000000  394.21650  16.3%     -    0s
     0     0  388.66092    0  870  339.00000  388.66092  14.6%     -    0s
     0     0  388.44096    0  875  339.00000  388.44096  14.6%     -    0s
     0     0  388.40139    0  876  339.00000  388.40139  14.6%     -    0s
     0     0  388.38366    0  878  339.00000  388.38366  14.6%     -    0s
     0     0  388.36471    0  877  339.00000  388.36471  14.6%     -    0s
     0     0  388.36329    0  878  339.00000  388.36329  14.6%     -    0s
     0     0  385.52175    0  871  339.00000  385.52175  13.7%     -    0s
     0     0  385.30254    0  873  339.00000  385.30254  13.7%     -    0s
     0     0  385.27426    0  873  339.00000  385.27426  13.7%     -    0s
     0     0  385.27202    0  873  339.00000  385.27202  13.6%     -    0s
H    0     0                     340.0000000  383.58036  12.8%     -    0s
     0     0  383.58036    0  879  340.00000  383.58036  12.8%     -    0s
     0     0  383.34317    0  878  340.00000  383.34317  12.7%     -    0s
     0     0  383.32612    0  884  340.00000  383.32612  12.7%     -    0s
     0     0  383.32317    0  884  340.00000  383.32317  12.7%     -    0s
     0     0  382.51523    0  875  340.00000  382.51523  12.5%     -    1s
     0     0  382.42662    0  876  340.00000  382.42662  12.5%     -    1s
     0     0  382.40379    0  873  340.00000  382.40379  12.5%     -    1s
     0     0  382.40066    0  878  340.00000  382.40066  12.5%     -    1s
     0     0  381.88596    0  876  340.00000  381.88596  12.3%     -    1s
     0     0  381.82979    0  877  340.00000  381.82979  12.3%     -    1s
     0     0  381.82197    0  878  340.00000  381.82197  12.3%     -    1s
     0     0  381.82098    0  878  340.00000  381.82098  12.3%     -    1s
     0     0  381.10099    0  882  340.00000  381.10099  12.1%     -    1s
     0     0  380.94616    0  882  340.00000  380.94616  12.0%     -    1s
     0     0  380.93947    0  885  340.00000  380.93947  12.0%     -    1s
     0     0  380.93758    0  884  340.00000  380.93758  12.0%     -    1s
     0     0  380.40278    0  880  340.00000  380.40278  11.9%     -    1s
     0     0  380.33182    0  881  340.00000  380.33182  11.9%     -    1s
     0     0  380.32048    0  883  340.00000  380.32048  11.9%     -    1s
     0     0  380.32014    0  883  340.00000  380.32014  11.9%     -    1s
     0     0  379.88954    0  881  340.00000  379.88954  11.7%     -    1s
     0     0  379.82696    0  881  340.00000  379.82696  11.7%     -    1s
     0     0  379.81490    0  882  340.00000  379.81490  11.7%     -    1s
     0     0  379.81205    0  883  340.00000  379.81205  11.7%     -    1s
     0     0  379.69934    0  885  340.00000  379.69934  11.7%     -    1s
     0     0  379.65390    0  881  340.00000  379.65390  11.7%     -    1s
     0     0  379.62535    0  881  340.00000  379.62535  11.7%     -    1s
     0     0  379.62429    0  882  340.00000  379.62429  11.7%     -    1s
     0     0  379.45556    0  881  340.00000  379.45556  11.6%     -    1s
     0     0  379.41039    0  882  340.00000  379.41039  11.6%     -    1s
     0     0  379.40286    0  883  340.00000  379.40286  11.6%     -    1s
     0     0  379.27747    0  883  340.00000  379.27747  11.6%     -    1s
     0     0  379.24049    0  889  340.00000  379.24049  11.5%     -    1s
     0     0  379.23923    0  888  340.00000  379.23923  11.5%     -    2s
     0     0  379.16029    0  887  340.00000  379.16029  11.5%     -    2s
H    0     0                     343.0000000  379.14532  10.5%     -    2s
     0     0  379.14532    0  889  343.00000  379.14532  10.5%     -    2s
     0     0  379.14411    0  888  343.00000  379.14411  10.5%     -    2s
     0     0  379.13330    0  887  343.00000  379.13330  10.5%     -    2s
     0     0  379.09617    0  886  343.00000  379.09617  10.5%     -    2s
     0     0  379.08703    0  888  343.00000  379.08703  10.5%     -    2s
     0     0  379.08525    0  888  343.00000  379.08525  10.5%     -    2s
     0     0  378.96541    0  883  343.00000  378.96541  10.5%     -    2s
     0     0  378.94070    0  883  343.00000  378.94070  10.5%     -    2s
     0     0  378.93599    0  887  343.00000  378.93599  10.5%     -    2s
     0     0  378.83126    0  886  343.00000  378.83126  10.4%     -    2s
     0     0  378.81912    0  888  343.00000  378.81912  10.4%     -    2s
     0     0  378.81768    0  889  343.00000  378.81768  10.4%     -    2s
     0     0  378.66857    0  884  343.00000  378.66857  10.4%     -    2s
     0     0  378.63619    0  883  343.00000  378.63619  10.4%     -    2s
     0     0  378.63048    0  884  343.00000  378.63048  10.4%     -    2s
     0     0  378.38235    0  887  343.00000  378.38235  10.3%     -    2s
     0     0  378.35801    0  889  343.00000  378.35801  10.3%     -    2s
     0     0  378.35499    0  887  343.00000  378.35499  10.3%     -    2s
     0     0  378.21987    0  887  343.00000  378.21987  10.3%     -    2s
     0     0  378.20719    0  888  343.00000  378.20719  10.3%     -    2s
     0     0  378.20299    0  887  343.00000  378.20299  10.3%     -    2s
     0     0  378.06764    0  889  343.00000  378.06764  10.2%     -    2s
     0     0  378.03118    0  888  343.00000  378.03118  10.2%     -    2s
     0     0  378.00801    0  889  343.00000  378.00801  10.2%     -    2s
     0     0  378.00386    0  890  343.00000  378.00386  10.2%     -    2s
     0     0  377.90612    0  886  343.00000  377.90612  10.2%     -    2s
     0     0  377.89287    0  887  343.00000  377.89287  10.2%     -    2s
     0     0  377.88924    0  890  343.00000  377.88924  10.2%     -    2s
     0     0  377.87322    0  890  343.00000  377.87322  10.2%     -    2s
     0     0  377.87322    0  889  343.00000  377.87322  10.2%     -    2s
     0     2  377.87322    0  888  343.00000  377.87322  10.2%     -    3s
